c Source: inf-power (1-hop neighborhood of node 3896)
c n=15, m=23, circuit_rank=9
c Augmented with 4 edges for Eulerian condition
p sp 15
e 3 11
e 4 10
e 10 11
e 10 14
e 9 10
e 1 10
e 7 10
e 6 14
e 10 13
e 3 5
e 3 10
e 2 10
e 6 13
e 7 8
e 6 10
e 10 12
e 3 4
e 5 10
e 8 10
e 1 2
e 6 9
e 10 15
e 12 15
